p edge 92 223
e 1 2
e 1 12
e 1 19
e 1 22
e 1 25
e 1 26
e 1 37
e 1 38
e 1 39
e 1 51
e 1 61
e 1 92
e 2 4
e 2 5
e 2 12
e 2 13
e 2 14
e 2 15
e 2 19
e 2 28
e 2 34
e 2 55
e 2 56
e 2 57
e 2 61
e 2 71
e 2 72
e 2 76
e 2 77
e 3 17
e 3 19
e 3 24
e 3 28
e 3 46
e 3 47
e 3 48
e 3 50
e 3 56
e 4 5
e 4 9
e 4 21
e 4 23
e 4 29
e 4 32
e 4 34
e 4 41
e 4 62
e 4 76
e 4 77
e 4 80
e 5 9
e 5 15
e 5 16
e 5 20
e 5 23
e 5 32
e 5 41
e 5 62
e 6 13
e 6 18
e 6 47
e 6 83
e 6 88
e 7 10
e 7 26
e 7 30
e 7 31
e 7 35
e 7 36
e 7 42
e 7 43
e 8 9
e 8 14
e 8 69
e 8 70
e 8 79
e 8 91
e 9 14
e 9 15
e 9 32
e 9 41
e 9 60
e 9 62
e 10 12
e 10 39
e 10 43
e 10 70
e 10 82
e 11 13
e 11 28
e 11 35
e 11 65
e 12 19
e 12 25
e 12 43
e 12 61
e 13 19
e 13 28
e 13 65
e 13 83
e 14 21
e 14 29
e 14 34
e 14 71
e 15 29
e 15 59
e 17 19
e 17 33
e 17 40
e 17 45
e 17 49
e 17 51
e 18 37
e 18 52
e 18 88
e 19 25
e 19 28
e 19 61
e 20 64
e 20 74
e 21 32
e 21 41
e 21 59
e 21 66
e 21 80
e 22 26
e 22 31
e 22 36
e 22 39
e 22 49
e 22 51
e 22 53
e 22 67
e 22 68
e 22 92
e 23 29
e 24 27
e 24 28
e 24 50
e 24 55
e 24 56
e 25 61
e 26 30
e 26 31
e 26 36
e 26 87
e 27 33
e 27 63
e 27 73
e 28 50
e 28 56
e 28 65
e 29 34
e 29 71
e 30 31
e 30 33
e 30 36
e 30 42
e 31 36
e 31 43
e 31 53
e 31 89
e 32 41
e 32 59
e 32 62
e 32 66
e 32 80
e 33 44
e 33 67
e 34 71
e 34 76
e 34 77
e 35 75
e 36 39
e 36 42
e 36 53
e 36 89
e 37 58
e 38 73
e 39 51
e 39 53
e 39 68
e 39 92
e 41 62
e 41 80
e 41 81
e 42 50
e 42 78
e 44 67
e 44 68
e 45 47
e 45 49
e 45 51
e 46 47
e 46 48
e 46 52
e 47 48
e 49 51
e 49 58
e 49 67
e 50 56
e 50 57
e 50 78
e 51 58
e 51 92
e 53 89
e 54 58
e 55 56
e 55 57
e 55 61
e 56 57
e 56 61
e 56 63
e 57 61
e 57 72
e 59 66
e 59 79
e 60 90
e 63 78
e 69 84
e 70 91
e 76 77
e 85 86
